
Gurobi 12.0.2 (win64) logging started Thu May 29 14:02:25 2025

Set parameter LogFile to value "data/solutions/karlsruhe_LB=1000000.0/karlsruhe_LB=1000000.0.log"
Gurobi Optimizer version 12.0.2 build v12.0.2rc0 (win64 - Windows 11.0 (26100.2))

CPU model: Intel(R) Core(TM) i5-14600KF, instruction set [SSE2|AVX|AVX2]
Thread count: 14 physical cores, 20 logical processors, using up to 1 threads

Non-default parameters:
TimeLimit  3600
FeasibilityTol  1e-07
IntFeasTol  1e-07
MIPGap  0
Threads  1
LazyConstraints  1

Academic license 2670408 - for non-commercial use only - registered to s6___@uni-bonn.de
Optimize a model with 4323 rows, 5238 columns and 19247 nonzeros
Model fingerprint: 0x4b0cb423
Model has 1 quadratic constraint
Variable types: 3 continuous, 5235 integer (5235 binary)
Coefficient statistics:
  Matrix range     [2e-03, 1e+07]
  QMatrix range    [1e+00, 1e+01]
  Objective range  [1e+00, 1e+00]
  Bounds range     [1e+00, 1e+00]
  RHS range        [1e+06, 1e+06]
Presolve time: 0.01s
Presolved: 4323 rows, 5238 columns, 19247 nonzeros
Presolved model has 1 quadratic constraint(s)
Variable types: 3 continuous, 5235 integer (5235 binary)

Root relaxation: objective 0.000000e+00, 25 iterations, 0.00 seconds (0.00 work units)

    Nodes    |    Current Node    |     Objective Bounds      |     Work
 Expl Unexpl |  Obj  Depth IntInf | Incumbent    BestBd   Gap | It/Node Time

     0     0    0.00000    0    3          -    0.00000      -     -    0s
     0     0    0.00000    0   11          -    0.00000      -     -    0s
H    0     0                       1.5980915    0.00000   100%     -    0s
     0     0    0.00000    0   11    1.59809    0.00000   100%     -    0s
     0     0    0.00000    0    -    1.59809    0.00000   100%     -    0s
     0     0    0.00000    0   21    1.59809    0.00000   100%     -    0s
H    0     0                       1.2547764    0.00000   100%     -    0s
     0     0    0.00000    0   21    1.25478    0.00000   100%     -    0s
     0     2    0.00000    0   21    1.25478    0.00000   100%     -    0s
H   83    58                       1.2266564    0.00000   100%   234    1s
H   92    58                       1.2227316    0.00002   100%   241    1s
*  305     3              13       1.0835449    1.08354  0.00%   136    3s

Cutting planes:
  Lazy constraints: 2

Explored 306 nodes (43724 simplex iterations) in 3.90 seconds (8.65 work units)
Thread count was 1 (of 20 available processors)

Solution count 5: 1.08354 1.22273 1.22666 ... 1.59809

Optimal solution found (tolerance 0.00e+00)
Warning: max constraint violation (4.4753e-06) exceeds tolerance
Best objective 1.083544871998e+00, best bound 1.083544871998e+00, gap 0.0000%

User-callback calls 1344, time in user-callback 0.01 sec
